set VV := 0 1 2 3 4 5 6 7 8 9 10 11 12 13 14 15 16 17 18 19 20 21 22 23 24 25 ;
set VS := 0 1 2 3 4 5 6 7 8 9 10 11 12 13 14 15 16 17 18 19 20 21 22 23 24 25 26 27 28 29 30 31 32 33 34 35 36 37 38 39 40 41 42 43 44 45 46 47 48 49 50 51 52 53 54 55 ;
param cv := 
0 10
1 21
2 12
3 13
4 22
5 24
6 10
7 18
8 18
9 21
10 20
11 25
12 18
13 15
14 22
15 12
16 22
17 25
18 12
19 15
20 12
21 10
22 23
23 13
24 19
25 17
;
param cs := 
0 32
1 24
2 27
3 40
4 29
5 38
6 38
7 37
8 33
9 32
10 23
11 32
12 20
13 29
14 22
15 30
16 34
17 28
18 32
19 21
20 31
21 36
22 28
23 27
24 30
25 37
26 35
27 40
28 22
29 34
30 22
31 36
32 31
33 24
34 39
35 36
36 39
37 31
38 25
39 30
40 29
41 22
42 37
43 38
44 25
45 29
46 38
47 37
48 31
49 37
50 39
51 38
52 32
53 35
54 21
55 32
;
param bv:	 0 1 2 3 4 5 6 7 8 9 10 11 12 13 14 15 16 17 18 19 20 21 22 23 24 25 := 
		0 0 0 0 0 0 10 0 0 0 18 0 0 0 0 0 25 0 0 0 0 14 0 0 0 0 0 
		1 0 0 0 11 0 0 0 0 11 0 0 0 0 0 0 0 0 0 0 14 0 0 0 0 0 0 
		2 0 0 0 0 0 0 0 0 18 10 23 0 0 0 0 0 10 0 0 0 11 0 0 11 0 0 
		3 0 0 0 0 10 0 0 0 0 24 0 0 0 0 0 0 10 0 0 0 16 0 0 0 0 0 
		4 0 0 0 0 0 0 0 0 0 0 0 0 0 0 0 0 0 0 0 0 0 0 0 0 0 0 
		5 0 0 0 0 0 0 0 0 0 19 0 0 0 0 0 17 0 0 19 0 0 0 0 10 0 0 
		6 0 0 0 0 0 0 0 17 0 0 0 0 0 0 0 0 18 0 0 0 12 0 23 0 0 0 
		7 0 0 0 0 0 0 0 0 0 0 16 0 0 0 0 0 0 0 0 0 0 0 0 0 0 0 
		8 0 0 0 0 0 0 0 0 0 0 0 0 0 0 0 0 0 0 0 0 0 0 0 0 0 0 
		9 0 0 0 0 0 0 0 0 0 0 0 0 0 0 0 0 0 0 0 0 0 0 0 17 0 0 
		10 0 0 0 0 0 0 0 0 0 0 0 0 0 0 0 12 0 0 0 15 0 0 0 24 0 0 
		11 0 0 0 0 0 0 0 0 0 0 0 0 0 19 11 0 0 0 0 0 0 0 15 0 0 0 
		12 0 0 0 0 0 0 0 0 0 0 0 0 0 11 0 0 0 0 0 0 0 0 0 0 22 0 
		13 0 0 0 0 0 0 0 0 0 0 0 0 0 0 0 24 0 0 0 12 0 0 0 0 0 0 
		14 0 0 0 0 0 0 0 0 0 0 0 0 0 0 0 22 0 20 0 0 0 0 0 0 0 24 
		15 0 0 0 0 0 0 0 0 0 0 0 0 0 0 0 0 0 0 0 0 0 0 0 22 0 10 
		16 0 0 0 0 0 0 0 0 0 0 0 0 0 0 0 0 0 0 0 0 0 0 0 0 20 0 
		17 0 0 0 0 0 0 0 0 0 0 0 0 0 0 0 0 0 0 0 0 0 0 21 0 0 0 
		18 0 0 0 0 0 0 0 0 0 0 0 0 0 0 0 0 0 0 0 0 0 0 0 22 0 13 
		19 0 0 0 0 0 0 0 0 0 0 0 0 0 0 0 0 0 0 0 0 0 0 0 12 0 18 
		20 0 0 0 0 0 0 0 0 0 0 0 0 0 0 0 0 0 0 0 0 0 0 0 19 11 0 
		21 0 0 0 0 0 0 0 0 0 0 0 0 0 0 0 0 0 0 0 0 0 0 25 0 0 0 
		22 0 0 0 0 0 0 0 0 0 0 0 0 0 0 0 0 0 0 0 0 0 0 0 0 0 0 
		23 0 0 0 0 0 0 0 0 0 0 0 0 0 0 0 0 0 0 0 0 0 0 0 0 0 21 
		24 0 0 0 0 0 0 0 0 0 0 0 0 0 0 0 0 0 0 0 0 0 0 0 0 0 23 
		25 0 0 0 0 0 0 0 0 0 0 0 0 0 0 0 0 0 0 0 0 0 0 0 0 0 0 
;
param bs:	 0 1 2 3 4 5 6 7 8 9 10 11 12 13 14 15 16 17 18 19 20 21 22 23 24 25 26 27 28 29 30 31 32 33 34 35 36 37 38 39 40 41 42 43 44 45 46 47 48 49 50 51 52 53 54 55 := 
		0 0 0 0 0 0 0 0 0 0 35 0 0 0 38 0 0 0 0 0 35 0 0 0 0 0 0 0 0 0 0 0 0 0 0 0 0 0 0 0 0 0 0 0 0 0 0 0 25 0 0 0 30 0 0 0 0 
		1 0 0 0 0 0 0 0 0 0 0 0 0 23 0 34 0 0 0 0 35 0 0 0 28 0 0 0 0 0 0 0 0 0 0 0 0 0 23 31 0 0 0 0 0 0 0 0 0 24 0 0 0 0 0 0 0 
		2 0 0 0 0 0 0 0 0 0 40 0 28 0 0 0 0 0 36 0 0 0 39 0 21 0 0 0 0 0 0 0 0 0 0 0 0 0 0 0 0 0 0 0 0 0 0 0 0 0 0 0 0 0 0 0 0 
		3 0 0 0 0 0 0 0 0 31 0 0 30 0 0 0 0 0 39 30 0 0 0 37 26 0 0 0 0 0 0 0 0 0 24 0 0 0 0 0 0 36 0 0 0 0 0 0 0 0 0 0 35 0 23 0 0 
		4 0 0 0 0 0 0 0 0 0 0 0 34 0 0 0 0 0 0 0 0 0 0 0 0 0 0 0 0 0 26 0 0 0 0 0 0 39 0 0 0 22 0 0 0 0 0 0 0 0 0 0 0 0 0 0 0 
		5 0 0 0 0 0 0 33 0 0 0 0 0 30 0 0 0 0 0 36 0 0 0 0 0 0 0 0 0 0 34 0 0 0 0 0 0 0 0 0 0 0 0 0 0 35 0 0 0 0 20 0 0 0 23 0 0 
		6 0 0 0 0 0 33 0 0 0 0 0 0 0 0 0 0 0 0 37 39 0 0 0 0 0 0 0 0 0 22 0 24 0 0 0 0 0 0 0 0 40 0 0 0 28 0 0 0 0 0 0 0 0 0 0 0 
		7 0 0 0 0 0 0 0 0 0 0 0 0 0 0 0 0 0 0 31 0 0 0 0 0 0 0 0 0 0 0 0 0 0 0 0 0 0 0 0 34 0 0 0 32 0 0 0 0 0 23 0 0 33 28 0 0 
		8 0 0 0 31 0 0 0 0 0 0 0 0 0 0 0 0 0 0 38 20 0 0 0 22 34 0 0 0 0 0 0 0 0 0 0 0 28 0 0 0 0 0 0 0 0 0 0 0 0 0 0 0 0 0 0 0 
		9 35 0 40 0 0 0 0 0 0 0 0 0 0 0 0 0 0 0 0 0 22 0 0 0 0 0 0 0 0 0 0 0 0 0 25 0 0 0 0 0 0 0 0 0 0 0 0 26 0 0 0 0 0 0 0 29 
		10 0 0 0 0 0 0 0 0 0 0 0 0 0 0 0 0 0 0 0 0 0 0 0 0 0 0 0 0 0 0 0 0 0 0 0 0 0 0 0 0 34 0 0 0 0 0 0 0 0 0 0 0 0 0 0 0 
		11 0 0 28 30 34 0 0 0 0 0 0 0 0 0 0 0 0 0 0 0 0 38 0 0 0 0 0 0 0 0 32 22 0 0 0 0 30 0 0 0 0 0 0 0 0 0 0 0 0 0 0 28 0 0 0 0 
		12 0 23 0 0 0 30 0 0 0 0 0 0 0 0 0 40 0 0 29 0 0 0 0 0 0 0 0 0 0 24 0 30 0 0 0 0 0 0 0 0 0 0 0 32 0 0 0 0 0 0 0 0 0 0 0 0 
		13 38 0 0 0 0 0 0 0 0 0 0 0 0 0 25 0 0 0 0 0 0 0 24 0 0 0 0 20 0 0 0 26 0 0 0 0 0 0 0 0 0 0 0 0 0 31 0 23 0 0 0 0 0 0 0 0 
		14 0 34 0 0 0 0 0 0 0 0 0 0 0 25 0 0 0 0 0 0 0 0 27 0 0 0 0 0 0 0 0 0 0 0 27 0 0 0 0 0 0 0 0 0 0 0 39 23 0 0 0 0 0 0 0 0 
		15 0 0 0 0 0 0 0 0 0 0 0 0 40 0 0 0 0 0 32 0 0 0 0 0 0 0 0 0 0 0 0 0 0 0 0 26 0 0 0 0 0 0 0 0 21 0 0 0 0 25 0 0 30 0 0 0 
		16 0 0 0 0 0 0 0 0 0 0 0 0 0 0 0 0 0 0 0 0 0 39 0 0 0 0 0 0 0 0 0 0 0 0 0 0 0 0 0 0 0 0 0 0 29 0 0 0 0 0 0 0 0 0 0 0 
		17 0 0 36 39 0 0 0 0 0 0 0 0 0 0 0 0 0 0 0 40 21 0 0 0 0 0 0 0 0 39 0 0 0 0 0 0 0 0 0 27 0 0 0 0 0 0 0 0 0 0 0 0 37 0 0 0 
		18 0 0 0 30 0 36 37 31 38 0 0 0 29 0 0 32 0 0 0 0 0 0 0 0 0 0 0 0 0 0 0 0 0 0 0 0 0 0 0 0 0 0 0 0 0 0 0 0 0 0 0 0 22 40 25 0 
		19 35 35 0 0 0 0 39 0 20 0 0 0 0 0 0 0 0 40 0 0 0 0 0 0 0 0 0 28 32 0 0 0 0 0 0 0 0 0 38 0 0 0 0 0 0 0 0 0 0 0 0 0 0 0 22 0 
		20 0 0 0 0 0 0 0 0 0 22 0 0 0 0 0 0 0 21 0 0 0 23 39 0 0 0 0 40 31 0 0 0 0 0 38 0 0 0 0 0 0 0 0 0 0 0 0 0 0 0 0 0 0 0 0 0 
		21 0 0 39 0 0 0 0 0 0 0 0 38 0 0 0 0 39 0 0 0 23 0 0 24 0 0 0 0 0 0 0 0 0 0 0 0 0 0 0 0 0 0 0 0 0 0 0 0 0 0 0 0 0 0 0 26 
		22 0 0 0 37 0 0 0 0 0 0 0 0 0 24 27 0 0 0 0 0 39 0 0 22 0 0 0 0 0 0 0 0 0 0 0 0 0 0 0 0 0 29 0 0 0 0 0 0 0 0 0 21 0 0 0 0 
		23 0 28 21 26 0 0 0 0 22 0 0 0 0 0 0 0 0 0 0 0 0 24 22 0 0 0 0 0 0 0 26 0 0 0 0 0 23 0 0 0 0 30 0 0 0 0 22 31 38 0 0 0 0 0 0 25 
		24 0 0 0 0 0 0 0 0 34 0 0 0 0 0 0 0 0 0 0 0 0 0 0 0 0 24 0 0 0 0 0 0 0 0 0 0 0 0 40 0 0 0 0 0 34 0 0 24 0 27 0 0 0 0 0 0 
		25 0 0 0 0 0 0 0 0 0 0 0 0 0 0 0 0 0 0 0 0 0 0 0 0 24 0 0 0 0 0 0 0 0 20 0 0 0 0 0 0 0 0 0 0 0 0 27 0 0 0 0 0 0 0 0 0 
		26 0 0 0 0 0 0 0 0 0 0 0 0 0 0 0 0 0 0 0 0 0 0 0 0 0 0 0 0 0 0 0 0 21 40 29 0 0 0 0 0 0 0 0 0 0 0 0 0 0 0 0 0 0 0 0 0 
		27 0 0 0 0 0 0 0 0 0 0 0 0 0 20 0 0 0 0 0 28 40 0 0 0 0 0 0 0 0 0 0 31 0 0 34 0 0 0 0 0 0 0 0 0 0 0 0 0 0 0 0 0 0 0 0 0 
		28 0 0 0 0 0 0 0 0 0 0 0 0 0 0 0 0 0 0 0 32 31 0 0 0 0 0 0 0 0 0 0 0 0 25 0 0 0 0 37 0 0 0 0 0 0 0 32 0 0 0 0 0 0 0 22 0 
		29 0 0 0 0 26 34 22 0 0 0 0 0 24 0 0 0 0 39 0 0 0 0 0 0 0 0 0 0 0 0 0 0 0 0 0 0 0 0 25 0 0 0 0 0 0 0 0 0 0 0 0 0 0 0 0 0 
		30 0 0 0 0 0 0 0 0 0 0 0 32 0 0 0 0 0 0 0 0 0 0 0 26 0 0 0 0 0 0 0 0 0 0 0 0 0 0 0 0 0 26 0 0 0 0 0 40 0 0 0 0 0 0 0 29 
		31 0 0 0 0 0 0 24 0 0 0 0 22 30 26 0 0 0 0 0 0 0 0 0 0 0 0 0 31 0 0 0 0 0 0 0 0 0 0 0 0 0 0 0 26 0 0 0 0 0 0 0 0 0 0 0 0 
		32 0 0 0 0 0 0 0 0 0 0 0 0 0 0 0 0 0 0 0 0 0 0 0 0 0 0 21 0 0 0 0 0 0 0 0 0 0 0 0 0 0 0 0 0 0 0 0 0 0 0 0 0 0 0 0 0 
		33 0 0 0 24 0 0 0 0 0 0 0 0 0 0 0 0 0 0 0 0 0 0 0 0 0 20 40 0 25 0 0 0 0 0 0 0 0 0 0 31 0 0 0 0 0 0 0 0 0 0 0 0 0 0 0 0 
		34 0 0 0 0 0 0 0 0 0 25 0 0 0 0 27 0 0 0 0 0 38 0 0 0 0 0 29 34 0 0 0 0 0 0 0 0 0 0 0 0 0 0 0 40 0 0 0 36 0 0 0 0 0 0 0 0 
		35 0 0 0 0 0 0 0 0 0 0 0 0 0 0 0 26 0 0 0 0 0 0 0 0 0 0 0 0 0 0 0 0 0 0 0 0 0 0 0 0 0 0 0 0 0 0 0 0 0 0 0 0 0 0 0 0 
		36 0 0 0 0 39 0 0 0 28 0 0 30 0 0 0 0 0 0 0 0 0 0 0 23 0 0 0 0 0 0 0 0 0 0 0 0 0 0 0 0 0 0 0 0 0 0 0 26 0 0 0 0 0 0 0 39 
		37 0 23 0 0 0 0 0 0 0 0 0 0 0 0 0 0 0 0 0 0 0 0 0 0 0 0 0 0 0 0 0 0 0 0 0 0 0 0 0 0 0 23 0 0 0 33 0 0 0 0 0 0 0 0 0 0 
		38 0 31 0 0 0 0 0 0 0 0 0 0 0 0 0 0 0 0 0 38 0 0 0 0 40 0 0 0 37 25 0 0 0 0 0 0 0 0 0 0 30 0 29 0 0 0 0 0 0 0 0 0 0 0 0 0 
		39 0 0 0 0 0 0 0 34 0 0 0 0 0 0 0 0 0 27 0 0 0 0 0 0 0 0 0 0 0 0 0 0 0 31 0 0 0 0 0 0 0 0 0 0 0 0 0 0 0 0 0 0 0 0 0 0 
		40 0 0 0 36 22 0 40 0 0 0 34 0 0 0 0 0 0 0 0 0 0 0 0 0 0 0 0 0 0 0 0 0 0 0 0 0 0 0 30 0 0 0 0 0 0 0 0 0 0 28 36 0 0 0 0 0 
		41 0 0 0 0 0 0 0 0 0 0 0 0 0 0 0 0 0 0 0 0 0 0 29 30 0 0 0 0 0 0 26 0 0 0 0 0 0 23 0 0 0 0 0 0 0 33 0 36 0 0 0 0 0 0 0 37 
		42 0 0 0 0 0 0 0 0 0 0 0 0 0 0 0 0 0 0 0 0 0 0 0 0 0 0 0 0 0 0 0 0 0 0 0 0 0 0 29 0 0 0 0 0 39 0 0 0 0 20 0 0 0 0 0 0 
		43 0 0 0 0 0 0 0 32 0 0 0 0 32 0 0 0 0 0 0 0 0 0 0 0 0 0 0 0 0 0 0 26 0 0 40 0 0 0 0 0 0 0 0 0 0 0 0 0 0 0 0 0 40 40 0 0 
		44 0 0 0 0 0 35 28 0 0 0 0 0 0 0 0 21 29 0 0 0 0 0 0 0 34 0 0 0 0 0 0 0 0 0 0 0 0 0 0 0 0 0 39 0 0 0 0 0 0 0 0 0 0 0 0 0 
		45 0 0 0 0 0 0 0 0 0 0 0 0 0 31 0 0 0 0 0 0 0 0 0 0 0 0 0 0 0 0 0 0 0 0 0 0 0 33 0 0 0 33 0 0 0 0 0 0 0 0 0 0 0 0 0 0 
		46 0 0 0 0 0 0 0 0 0 0 0 0 0 0 39 0 0 0 0 0 0 0 0 22 0 27 0 0 32 0 0 0 0 0 0 0 0 0 0 0 0 0 0 0 0 0 0 0 0 0 0 0 0 0 0 0 
		47 25 0 0 0 0 0 0 0 0 26 0 0 0 23 23 0 0 0 0 0 0 0 0 31 24 0 0 0 0 0 40 0 0 0 36 0 26 0 0 0 0 36 0 0 0 0 0 0 0 0 0 24 0 0 0 0 
		48 0 24 0 0 0 0 0 0 0 0 0 0 0 0 0 0 0 0 0 0 0 0 0 38 0 0 0 0 0 0 0 0 0 0 0 0 0 0 0 0 0 0 0 0 0 0 0 0 0 0 0 0 0 0 0 0 
		49 0 0 0 0 0 20 0 23 0 0 0 0 0 0 0 25 0 0 0 0 0 0 0 0 27 0 0 0 0 0 0 0 0 0 0 0 0 0 0 0 28 0 20 0 0 0 0 0 0 0 0 0 0 0 0 0 
		50 0 0 0 0 0 0 0 0 0 0 0 0 0 0 0 0 0 0 0 0 0 0 0 0 0 0 0 0 0 0 0 0 0 0 0 0 0 0 0 0 36 0 0 0 0 0 0 0 0 0 0 0 26 23 0 0 
		51 30 0 0 35 0 0 0 0 0 0 0 28 0 0 0 0 0 0 0 0 0 0 21 0 0 0 0 0 0 0 0 0 0 0 0 0 0 0 0 0 0 0 0 0 0 0 0 24 0 0 0 0 0 0 0 0 
		52 0 0 0 0 0 0 0 33 0 0 0 0 0 0 0 30 0 37 22 0 0 0 0 0 0 0 0 0 0 0 0 0 0 0 0 0 0 0 0 0 0 0 0 40 0 0 0 0 0 0 26 0 0 0 0 29 
		53 0 0 0 23 0 23 0 28 0 0 0 0 0 0 0 0 0 0 40 0 0 0 0 0 0 0 0 0 0 0 0 0 0 0 0 0 0 0 0 0 0 0 0 40 0 0 0 0 0 0 23 0 0 0 26 0 
		54 0 0 0 0 0 0 0 0 0 0 0 0 0 0 0 0 0 0 25 22 0 0 0 0 0 0 0 0 22 0 0 0 0 0 0 0 0 0 0 0 0 0 0 0 0 0 0 0 0 0 0 0 0 26 0 0 
		55 0 0 0 0 0 0 0 0 0 29 0 0 0 0 0 0 0 0 0 0 0 26 0 25 0 0 0 0 0 0 29 0 0 0 0 0 39 0 0 0 0 37 0 0 0 0 0 0 0 0 0 0 29 0 0 0 
;
